
        $ From http://www.csplib.org/Problems/prob009/data/helmut.pdf
        $ Problem number 89
        $ Sequence length : 25
        language ESSENCE' 1.0
        letting sizemaster be 323
        letting sizes be sequence(2,3,4,7,10,13,15,18,23,32,34,35,36,42,46,50,57,60,66,72,78,87,98,159,164)
        